# XYG3(full)/6-311+G(3df,2p) sp scf=tight

Test for Z-matrix with parameters::
==----------------------------------------------------------------------------==
  E(B3LYP)    =     -56.58684704 A.U.    E(XYG3)     =     -56.55574269 A.U.
==----------------------------------------------------------------------------==

0 1
 N
 H, 1, B1 
 H, 1, B1 , 2,A1
 H, 1, B1 , 3,107.5921, 2, C1
 
B1 = 1.014256
A1 107.5921
C1,116.458

