%chk=Test011.chk
# XDHPBE0(full)/6-311+G(3df,2p) sp scf=tight

Test for normal Cartesian geometry input ::
==----------------------------------------------------------------------------==
  E(PBE1PBE)  =     -56.51366394 A.U.    E(XDHPBE0)  =     -56.51990176 A.U.
==----------------------------------------------------------------------------==

0 1
 N                  0.00000000    0.00000000    0.10882700
 H                  0.00000000    0.94745500   -0.25393100
 H                  0.82052000   -0.47372700   -0.25393100
 H                 -0.82052000   -0.47372700   -0.25393100
 

