%chk=Test001.chk
# XYG3(full)/6-311+G(3df,2p) sp scf=tight scrf(pcm,solvent=water)

Test for normal Cartesian geometry input ::
==----------------------------------------------------------------------------==
  E(B3LYP)    =     -56.59192497 A.U.    E(XYG3)     =     -56.56104009 A.U.
==----------------------------------------------------------------------------==

0 1
 N                  0.00000000    0.00000000    0.10882700
 H                  0.00000000    0.94745500   -0.25393100
 H                  0.82052000   -0.47372700   -0.25393100
 H                 -0.82052000   -0.47372700   -0.25393100
 

