# XYG3(full)/gen sp scf=tight

Test for normal Cartesian geometry input and gen basis input::
==----------------------------------------------------------------------------==
  E(B3LYP)    =     -56.57630246 A.U.    E(XYG3)     =     -56.53968521 A.U.
==----------------------------------------------------------------------------==

0 1
 N                  0.00000000    0.00000000    0.10882700
 H                  0.00000000    0.94745500   -0.25393100
 H                  0.82052000   -0.47372700   -0.25393100
 H                 -0.82052000   -0.47372700   -0.25393100
 
N 0
6-311+G(3df,p)
****
H 0
S    3 1.00
 0.1873113696D+02  0.3349460434D-01
 0.2825394365D+01  0.2347269535D+00
 0.6401216923D+00  0.8137573262D+00
S    1 1.00
 0.1612777588D+00  0.1000000000D+01
****

